
Gurobi 11.0.2 (win64) logging started Sun Aug 18 13:23:51 2024

Set parameter LogFile to value "D:\Documenti\Scuola\Laurea magistrale unibs\laurea-unibs-mkfsp\output\2024-08-18T10_03_15.889499\logs\instance09_bucket6.log"
Set parameter TimeLimit to value 350
Set parameter MIPGap to value 0
Gurobi Optimizer version 11.0.2 build v11.0.2rc0 (win64 - Windows 10.0 (19045.2))

CPU model: Intel(R) Core(TM) i5-4670 CPU @ 3.40GHz, instruction set [SSE2|AVX|AVX2]
Thread count: 4 physical cores, 4 logical processors, using up to 4 threads

Optimize a model with 5866 rows, 29920 columns and 841675 nonzeros
Model fingerprint: 0x6d93065b
Variable types: 0 continuous, 29920 integer (29690 binary)
Coefficient statistics:
  Matrix range     [1e+00, 9e+03]
  Objective range  [6e+02, 9e+03]
  Bounds range     [1e+00, 1e+00]
  RHS range        [1e+00, 1e+06]
Found heuristic solution: objective 1161375.0000
Presolve time: 1.88s
Presolved: 5866 rows, 29920 columns, 841675 nonzeros
Variable types: 0 continuous, 29920 integer (29690 binary)
Found heuristic solution: objective 1209373.0000
Deterministic concurrent LP optimizer: primal simplex, dual simplex, and barrier
Showing barrier log only...

Root barrier log...

Ordering time: 0.07s

Barrier statistics:
 AA' NZ     : 9.003e+05
 Factor NZ  : 1.035e+06 (roughly 20 MB of memory)
 Factor Ops : 4.788e+08 (less than 1 second per iteration)
 Threads    : 2

Barrier performed 0 iterations in 2.65 seconds (2.12 work units)
Barrier solve interrupted - model solved by another algorithm

Concurrent spin time: 0.15s (can be avoided by choosing Method=3)

Solved with dual simplex

Root relaxation: objective 1.342465e+06, 1786 iterations, 0.64 seconds (0.44 work units)

    Nodes    |    Current Node    |     Objective Bounds      |     Work
 Expl Unexpl |  Obj  Depth IntInf | Incumbent    BestBd   Gap | It/Node Time

H    0     0                    1342465.0000 1342465.00  0.00%     -    2s
     0     0 1342465.00    0 1379 1342465.00 1342465.00  0.00%     -    2s

Explored 1 nodes (1786 simplex iterations) in 2.74 seconds (2.15 work units)
Thread count was 4 (of 4 available processors)

Solution count 3: 1.34247e+06 1.20937e+06 1.16138e+06 

Optimal solution found (tolerance 0.00e+00)
Best objective 1.342465000000e+06, best bound 1.342465000000e+06, gap 0.0000%
